Gurobi 12.0.1:   lim:time = 14400
  mip:bestbound = 1
Set parameter LogToConsole to value 1
  tech:outlev = 1
Set parameter InfUnbdInfo to value 1
Gurobi Optimizer version 12.0.1 build v12.0.1rc0 (win64 - Windows 11.0 (26100.2))

CPU model: Intel(R) Core(TM) i7-10700 CPU @ 2.90GHz, instruction set [SSE2|AVX|AVX2]
Thread count: 8 physical cores, 16 logical processors, using up to 16 threads

Non-default parameters:
TimeLimit  14400
InfUnbdInfo  1

Optimize a model with 334 rows, 642 columns and 3204 nonzeros
Model fingerprint: 0xa37504a9
Model has 3 quadratic objective terms
Model has 7 quadratic constraints
Variable types: 31 continuous, 611 integer (0 binary)
Coefficient statistics:
  Matrix range     [1e+00, 1e+05]
  QMatrix range    [1e+00, 1e+00]
  QLMatrix range   [1e+00, 2e+01]
  Objective range  [5e+00, 1e+02]
  QObjective range [1e+00, 1e+00]
  Bounds range     [1e+00, 1e+02]
  RHS range        [1e+00, 1e+05]
  QRHS range       [1e+02, 1e+02]
Presolve removed 30 rows and 48 columns
Presolve time: 0.04s
Presolved: 641 rows, 923 columns, 4497 nonzeros
Variable types: 96 continuous, 827 integer (826 binary)
Found heuristic solution: objective 636.3900000

Root relaxation: objective 1.172657e+02, 93 iterations, 0.00 seconds (0.00 work units)

    Nodes    |    Current Node    |     Objective Bounds      |     Work
 Expl Unexpl |  Obj  Depth IntInf | Incumbent    BestBd   Gap | It/Node Time

     0     0  117.26572    0   21  636.39000  117.26572  81.6%     -    0s
H    0     0                     314.5700000  117.26572  62.7%     -    0s
     0     0  198.25435    0   24  314.57000  198.25435  37.0%     -    0s
     0     0  240.15182    0   25  314.57000  240.15182  23.7%     -    0s
     0     0  242.73208    0   28  314.57000  242.73208  22.8%     -    0s
     0     0  252.03706    0   29  314.57000  252.03706  19.9%     -    0s
     0     0  252.46116    0   27  314.57000  252.46116  19.7%     -    0s
     0     0  253.54000    0   25  314.57000  253.54000  19.4%     -    0s
H    0     0                     309.6800000  253.54000  18.1%     -    0s
     0     0  253.54000    0   25  309.68000  253.54000  18.1%     -    0s
     0     0  253.54000    0   22  309.68000  253.54000  18.1%     -    0s
     0     0  253.54000    0   18  309.68000  253.54000  18.1%     -    0s
     0     0  253.54000    0   18  309.68000  253.54000  18.1%     -    0s
     0     0  253.54000    0   22  309.68000  253.54000  18.1%     -    0s
     0     0  253.54000    0   22  309.68000  253.54000  18.1%     -    0s
     0     0  253.63500    0   21  309.68000  253.63500  18.1%     -    0s
H    0     0                     308.5000000  253.63500  17.8%     -    0s
     0     0  253.63500    0   32  308.50000  253.63500  17.8%     -    0s
     0     0  253.63500    0   39  308.50000  253.63500  17.8%     -    0s
     0     0  253.63500    0   26  308.50000  253.63500  17.8%     -    0s
     0     0  253.63500    0   25  308.50000  253.63500  17.8%     -    0s
     0     0  253.92120    0   24  308.50000  253.92120  17.7%     -    0s
     0     0  253.92120    0   27  308.50000  253.92120  17.7%     -    0s
     0     0  253.92120    0   20  308.50000  253.92120  17.7%     -    0s
     0     0  253.92120    0   20  308.50000  253.92120  17.7%     -    0s
     0     0  253.92120    0   22  308.50000  253.92120  17.7%     -    0s
     0     0  253.92120    0   20  308.50000  253.92120  17.7%     -    0s
     0     2  253.97318    0   18  308.50000  253.97318  17.7%     -    0s
H   30    61                     296.4000000  257.99239  13.0%  24.0    0s

Cutting planes:
  Learned: 15
  Gomory: 12
  Cover: 4
  Implied bound: 12
  MIR: 6
  Flow cover: 2
  Inf proof: 20
  RLT: 21
  Relax-and-lift: 1

Explored 1510 nodes (13938 simplex iterations) in 1.37 seconds (0.60 work units)
Thread count was 16 (of 16 available processors)

Solution count 5: 296.4 308.5 309.68 ... 636.39

Optimal solution found (tolerance 1.00e-04)
Best objective 2.964000000000e+02, best bound 2.964000000000e+02, gap 0.0000%

AMPL MP initial flat model has 642 variables (0 integer, 611 binary);
Objectives: 1 quadratic; 
Constraints:  334 linear; 7 quadratic;

AMPL MP final model has 642 variables (0 integer, 611 binary);
Objectives: 1 quadratic; 
Constraints:  334 linear; 7 quadratic;


-----RESULTS INFO-----
running_time:  1.4840000000000002
TC.best_bound:  296.4
TC:  296.4
MIP Gap (%):  0
=== Vehicle Routes ===
Vehicle 1: 0 → 4
Vehicle 1: 1 → 2
Vehicle 1: 2 → 3
Vehicle 1: 3 → 9
Vehicle 1: 4 → 11
Vehicle 1: 9 → 18
Vehicle 1: 11 → 1
Vehicle 2: 0 → 18
Vehicle 3: 0 → 18

=== Full Vehicle Routes ===
Vehicle 1: 0 → 4 → 11 → 1 → 2 → 3 → 9 → 0 (83<100)
Vehicle 2: 0 → 0 (0<100)
Vehicle 3: 0 → 0 (0<100)
Arc used by MRT line: y variables:
MRT used: 9 → 10
Customer assigment to PL: u variables:
5 9
6 11
7 9
8 10
Node is served by regular vehicle: g variables:
1
2
3
4
9
11
Customer assigment to Home delivery: gm variables:
1
2
3
4
Node total demands: ntd variables:
1 4 1
2 24 1
3 7 1
4 12 1
7 0 0
8 0 0
15 0 0
16 0 0
17 0 0
9 12 1
10 0 0
11 24 1
12 0 0
13 0 0
14 0 0
Customer's demand delivered to PL: l variables:
5
6
7
8
Lockers load <= capacity:
0 <= 86
0 <= 73
0 <= 80
11 <= 75
1 <= 88
24 <= 71
0 <= 70
0 <= 99
0 <= 97
